3 
4  56 
5  18 38 52 59 
6  07 14 22 30 36 45 52 
7  00 06 12 20 27 35 42 50 57 
8  05 12 20 27 35 42 50 57 
9  05 12 20 27 35 42 50 57 
10  05 12 20 27 35 42 50 57 
11  05 12 20 27 35 42 50 57 
12  05 12 20 27 35 42 50 57 
13  06 13 21 28 36 43 51 58 
14  06 13 21 28 36 43 51 58 
15  06 12 21 28 36 43 51 58 
16  06 12 21 28 36 43 51 58 
17  06 13 21 28 36 43 51 58 
18  06 13 21 28 36 44 51 58 
19  05 12 20 27 35 42 50 57 
20  05 12 22 37 52 
21  07 22 37 52 
22  07 19 32 47 
23  02 
0 
